\ENCODING=ISO-8859-1
\Problem name: nSARP

Maximize
 obj: 7.856 x(0,1,0) + 7.77 x(0,2,0) + 7.557 x(0,3,0) + 8.425 x(0,4,0)
      + 8.136 x(0,5,0) + 7.77 x(0,6,0) + 7.869 x(0,7,0) + 8.776 x(0,9,0)
      + 7.231 x(1,0,0) + 6.973 x(1,2,0) + 7.674 x(1,3,0) + 7.054 x(1,4,0)
      + 7.371 x(1,5,0) + 6.973 x(1,6,0) + 7.218 x(1,7,0) + 8.158 x(1,9,0)
      + 7.851 x(2,0,0) + 8.219 x(2,1,0) + 7.886 x(2,3,0) + 7.971 x(2,4,0)
      + 7.677 x(2,5,0) + 8.183 x(2,6,0) + 8.417 x(2,7,0) + 8.89 x(2,9,0)
      + 7.159 x(3,0,0) + 7.263 x(3,1,0) + 6.291 x(3,2,0) + 6.735 x(3,4,0)
      + 7.325 x(3,5,0) + 6.308 x(3,6,0) + 6.485 x(3,7,0) + 7.93 x(3,9,0)
      + 5.803 x(4,0,0) + 5.562 x(4,1,0) + 5.087 x(4,2,0) + 5.287 x(4,3,0)
      + 6.696 x(5,0,0) + 6.274 x(5,1,0) + 5.592 x(5,2,0) + 6.337 x(5,3,0)
      - 1.361 x(6,0,0) - 1.159 x(6,1,0) - 1.472 x(6,3,0) - 1.544 x(6,5,0)
      - 1.261 x(7,0,0) - 1.06 x(7,1,0) - 0.374 x(7,2,0) - 1.373 x(7,3,0)
      - 1.077 x(7,4,0) - 1.463 x(8,0,0) - 1.129 x(8,1,0) - 0.397 x(8,2,0)
      - 1.366 x(8,3,0) - 1.459 x(8,4,0) - 1.669 x(8,5,0) + 0 y(9,0) + 0 w(9)
      + id914
Subject To
 Constraint1_0:    x(0,1,0) + x(0,2,0) + x(0,3,0) + x(0,4,0) + x(0,5,0)
                   + x(0,6,0) + x(0,7,0) + x(0,9,0)  = 1
 Constraint1_1:    x(1,0,0) + x(1,2,0) + x(1,3,0) + x(1,4,0) + x(1,5,0)
                   + x(1,6,0) + x(1,7,0) + x(1,9,0)  = 1
 Constraint1_2:    x(2,0,0) + x(2,1,0) + x(2,3,0) + x(2,4,0) + x(2,5,0)
                   + x(2,6,0) + x(2,7,0) + x(2,9,0)  = 1
 Constraint1_3:    x(3,0,0) + x(3,1,0) + x(3,2,0) + x(3,4,0) + x(3,5,0)
                   + x(3,6,0) + x(3,7,0) + x(3,9,0)  = 1
 Constraint2_4:    x(4,0,0) + x(4,1,0) + x(4,2,0) + x(4,3,0) - y(4,0)  = 0
 Constraint2_5:    x(5,0,0) + x(5,1,0) + x(5,2,0) + x(5,3,0) - y(5,0)  = 0
 Constraint3_4_0:  x(4,0,0) + x(4,1,0) + x(4,2,0) + x(4,3,0) - x(6,0,0)
                   - x(6,1,0) - x(6,2,0) - x(6,3,0) - x(6,5,0) - x(6,9,0)  = 0
 Constraint3_5_0:  x(5,0,0) + x(5,1,0) + x(5,2,0) + x(5,3,0) - x(7,0,0)
                   - x(7,1,0) - x(7,2,0) - x(7,3,0) - x(7,4,0) - x(7,9,0)  = 0
 Constraint4_0_0:  x(0,1,0) + x(0,2,0) + x(0,3,0) + x(0,4,0) + x(0,5,0)
                   + x(0,6,0) + x(0,7,0) + x(0,9,0) - x(1,0,0) - x(2,0,0)
                   - x(3,0,0) - x(4,0,0) - x(5,0,0) - x(6,0,0) - x(7,0,0)
                   - x(8,0,0)  = 0
 Constraint4_1_0:  - x(0,1,0) + x(1,0,0) + x(1,2,0) + x(1,3,0) + x(1,4,0)
                   + x(1,5,0) + x(1,6,0) + x(1,7,0) + x(1,9,0) - x(2,1,0)
                   - x(3,1,0) - x(4,1,0) - x(5,1,0) - x(6,1,0) - x(7,1,0)
                   - x(8,1,0)  = 0
 Constraint4_2_0:  - x(0,2,0) - x(1,2,0) + x(2,0,0) + x(2,1,0) + x(2,3,0)
                   + x(2,4,0) + x(2,5,0) + x(2,6,0) + x(2,7,0) + x(2,9,0)
                   - x(3,2,0) - x(4,2,0) - x(5,2,0) - x(6,2,0) - x(7,2,0)
                   - x(8,2,0)  = 0
 Constraint4_3_0:  - x(0,3,0) - x(1,3,0) - x(2,3,0) + x(3,0,0) + x(3,1,0)
                   + x(3,2,0) + x(3,4,0) + x(3,5,0) + x(3,6,0) + x(3,7,0)
                   + x(3,9,0) - x(4,3,0) - x(5,3,0) - x(6,3,0) - x(7,3,0)
                   - x(8,3,0)  = 0
 Constraint4_4_0:  - x(0,4,0) - x(1,4,0) - x(2,4,0) - x(3,4,0) + x(4,0,0)
                   + x(4,1,0) + x(4,2,0) + x(4,3,0) - x(7,4,0) - x(8,4,0)  = 0
 Constraint4_5_0:  - x(0,5,0) - x(1,5,0) - x(2,5,0) - x(3,5,0) + x(5,0,0)
                   + x(5,1,0) + x(5,2,0) + x(5,3,0) - x(6,5,0) - x(8,5,0)  = 0
 Constraint4_6_0:  - x(0,6,0) - x(1,6,0) - x(2,6,0) - x(3,6,0) + x(6,0,0)
                   + x(6,1,0) + x(6,2,0) + x(6,3,0) + x(6,5,0) + x(6,9,0)  = 0
 Constraint4_7_0:  - x(0,7,0) - x(1,7,0) - x(2,7,0) - x(3,7,0) + x(7,0,0)
                   + x(7,1,0) + x(7,2,0) + x(7,3,0) + x(7,4,0) + x(7,9,0)  = 0
 Constraint5_0:    x(8,0,0) + x(8,1,0) + x(8,2,0) + x(8,3,0) + x(8,4,0)
                   + x(8,5,0)  = 1
 Constraint6_0:    x(0,9,0) + x(1,9,0) + x(2,9,0) + x(3,9,0) + x(6,9,0)
                   + x(7,9,0)  = 1
 Constraint7_0_0:  - 48 y(0,0) + b(0) <= 0
 Constraint7_1_0:  - 48 y(1,0) + b(1) <= 0
 Constraint7_2_0:  - 48 y(2,0) + b(2) <= 0
 Constraint7_3_0:  - 48 y(3,0) + b(3) <= 0
 Constraint7_4_0:  - 48 y(4,0) + b(4) <= 0
 Constraint7_5_0:  - 48 y(5,0) + b(5) <= 0
 Constraint7_6_0:  - 48 y(6,0) + b(6) <= 0
 Constraint7_7_0:  - 48 y(7,0) + b(7) <= 0
 Constraint7_8_0:  - 48 y(8,0) + b(8) <= 0
 Constraint8_4:    b(4) - b(6) <= 0
 Constraint8_5:    b(5) - b(7) <= 0
 Constraint9_0_1:  48 x(0,1,0) + b(0) - b(1) <= 47.7549913644214
 Constraint9_0_2:  48 x(0,2,0) + b(0) - b(2) <= 47.7505354058722
 Constraint9_0_3:  48 x(0,3,0) + b(0) - b(3) <= 47.7394991364421
 Constraint9_0_4:  48 x(0,4,0) + b(0) - b(4) <= 47.7844732297064
 Constraint9_0_5:  48 x(0,5,0) + b(0) - b(5) <= 47.7694991364421
 Constraint9_0_6:  48 x(0,6,0) + b(0) - b(6) <= 47.7505354058722
 Constraint9_0_7:  48 x(0,7,0) + b(0) - b(7) <= 47.7556649395509
 Constraint9_0_9:  48 x(0,9,0) + b(0) - b(9) <= 47.8026597582038
 Constraint9_1_0:  48 x(1,0,0) - b(0) + b(1) <= 47.7653022452504
 Constraint9_1_2:  48 x(1,2,0) + b(1) - b(2) <= 47.7519343696028
 Constraint9_1_3:  48 x(1,3,0) + b(1) - b(3) <= 47.7882556131261
 Constraint9_1_4:  48 x(1,4,0) + b(1) - b(4) <= 47.7561312607945
 Constraint9_1_5:  48 x(1,5,0) + b(1) - b(5) <= 47.7725561312608
 Constraint9_1_6:  48 x(1,6,0) + b(1) - b(6) <= 47.7519343696028
 Constraint9_1_7:  48 x(1,7,0) + b(1) - b(7) <= 47.7646286701209
 Constraint9_1_9:  48 x(1,9,0) + b(1) - b(9) <= 47.8133333333333
 Constraint9_2_0:  48 x(2,0,0) - b(0) + b(2) <= 47.7468566493955
 Constraint9_2_1:  48 x(2,1,0) - b(1) + b(2) <= 47.7659240069085
 Constraint9_2_3:  48 x(2,3,0) + b(2) - b(3) <= 47.7486701208981
 Constraint9_2_4:  48 x(2,4,0) + b(2) - b(4) <= 47.7530742659758
 Constraint9_2_5:  48 x(2,5,0) + b(2) - b(5) <= 47.7378411053541
 Constraint9_2_6:  48 x(2,6,0) + b(2) - b(6) <= 47.7640587219344
 Constraint9_2_7:  48 x(2,7,0) + b(2) - b(7) <= 47.776183074266
 Constraint9_2_9:  48 x(2,9,0) + b(2) - b(9) <= 47.8006908462867
 Constraint9_3_0:  48 x(3,0,0) - b(0) + b(3) <= 47.777322970639
 Constraint9_3_1:  48 x(3,1,0) - b(1) + b(3) <= 47.7827115716753
 Constraint9_3_2:  48 x(3,2,0) - b(2) + b(3) <= 47.7323488773748
 Constraint9_3_4:  48 x(3,4,0) + b(3) - b(4) <= 47.7553540587219
 Constraint9_3_5:  48 x(3,5,0) + b(3) - b(5) <= 47.7859240069085
 Constraint9_3_6:  48 x(3,6,0) + b(3) - b(6) <= 47.7332297063903
 Constraint9_3_7:  48 x(3,7,0) + b(3) - b(7) <= 47.7424006908463
 Constraint9_3_9:  48 x(3,9,0) + b(3) - b(9) <= 47.8172711571675
 Constraint9_4_0:  48 x(4,0,0) - b(0) + b(4) <= 47.8882210708117
 Constraint9_4_1:  48 x(4,1,0) - b(1) + b(4) <= 47.8757340241796
 Constraint9_4_2:  48 x(4,2,0) - b(2) + b(4) <= 47.8511226252159
 Constraint9_4_3:  48 x(4,3,0) - b(3) + b(4) <= 47.8614853195164
 Constraint9_5_0:  48 x(5,0,0) - b(0) + b(5) <= 47.9066148531952
 Constraint9_5_1:  48 x(5,1,0) - b(1) + b(5) <= 47.8847495682211
 Constraint9_5_2:  48 x(5,2,0) - b(2) + b(5) <= 47.8494127806563
 Constraint9_5_3:  48 x(5,3,0) - b(3) + b(5) <= 47.8880138169257
 Constraint9_6_0:  48 x(6,0,0) - b(0) + b(6) <= 47.8461485319516
 Constraint9_6_1:  48 x(6,1,0) - b(1) + b(6) <= 47.8566148531952
 Constraint9_6_2:  48 x(6,2,0) - b(2) + b(6) <= 47.9166666666667
 Constraint9_6_3:  48 x(6,3,0) - b(3) + b(6) <= 47.8403972366149
 Constraint9_6_5:  48 x(6,5,0) - b(5) + b(6) <= 47.8366666666667
 Constraint9_6_9:  48 x(6,9,0) + b(6) - b(9) <= 47.9166666666667
 Constraint9_7_0:  48 x(7,0,0) - b(0) + b(7) <= 47.8513298791019
 Constraint9_7_1:  48 x(7,1,0) - b(1) + b(7) <= 47.8617443868739
 Constraint9_7_2:  48 x(7,2,0) - b(2) + b(7) <= 47.8972884283247
 Constraint9_7_3:  48 x(7,3,0) - b(3) + b(7) <= 47.8455267702936
 Constraint9_7_4:  48 x(7,4,0) - b(4) + b(7) <= 47.8608635578584
 Constraint9_7_9:  48 x(7,9,0) + b(7) - b(9) <= 47.9166666666667
 Constraint9_8_0:  48 x(8,0,0) - b(0) + b(8) <= 47.9241968911917
 Constraint9_8_1:  48 x(8,1,0) - b(1) + b(8) <= 47.9415025906736
 Constraint9_8_2:  48 x(8,2,0) - b(2) + b(8) <= 47.9794300518135
 Constraint9_8_3:  48 x(8,3,0) - b(3) + b(8) <= 47.9292227979275
 Constraint9_8_4:  48 x(8,4,0) - b(4) + b(8) <= 47.9244041450777
 Constraint9_8_5:  48 x(8,5,0) - b(5) + b(8) <= 47.9135233160622
 Constraint10_0:   5 x(0,1,0) + w(0) - w(1) <= 5
 Constraint10_1:   5 x(0,2,0) + w(0) - w(2) <= 5
 Constraint10_2:   5 x(0,3,0) + w(0) - w(3) <= 5
 Constraint10_3:   5 x(0,4,0) + w(0) - w(4) <= 5
 Constraint10_4:   5 x(0,5,0) + w(0) - w(5) <= 5
 Constraint10_5:   5 x(0,6,0) + w(0) - w(6) <= 5
 Constraint10_6:   5 x(0,7,0) + w(0) - w(7) <= 5
 Constraint10_7:   5 x(1,0,0) - w(0) + w(1) <= 5
 Constraint10_8:   5 x(1,2,0) + w(1) - w(2) <= 5
 Constraint10_9:   5 x(1,3,0) + w(1) - w(3) <= 5
 Constraint10_10:  5 x(1,4,0) + w(1) - w(4) <= 5
 Constraint10_11:  5 x(1,5,0) + w(1) - w(5) <= 5
 Constraint10_12:  5 x(1,6,0) + w(1) - w(6) <= 5
 Constraint10_13:  5 x(1,7,0) + w(1) - w(7) <= 5
 Constraint10_14:  5 x(2,0,0) - w(0) + w(2) <= 5
 Constraint10_15:  5 x(2,1,0) - w(1) + w(2) <= 5
 Constraint10_16:  5 x(2,3,0) + w(2) - w(3) <= 5
 Constraint10_17:  5 x(2,4,0) + w(2) - w(4) <= 5
 Constraint10_18:  5 x(2,5,0) + w(2) - w(5) <= 5
 Constraint10_19:  5 x(2,6,0) + w(2) - w(6) <= 5
 Constraint10_20:  5 x(2,7,0) + w(2) - w(7) <= 5
 Constraint10_21:  5 x(3,0,0) - w(0) + w(3) <= 5
 Constraint10_22:  5 x(3,1,0) - w(1) + w(3) <= 5
 Constraint10_23:  5 x(3,2,0) - w(2) + w(3) <= 5
 Constraint10_24:  5 x(3,4,0) + w(3) - w(4) <= 5
 Constraint10_25:  5 x(3,5,0) + w(3) - w(5) <= 5
 Constraint10_26:  5 x(3,6,0) + w(3) - w(6) <= 5
 Constraint10_27:  5 x(3,7,0) + w(3) - w(7) <= 5
 Constraint10_28:  5 x(4,0,0) - w(0) + w(4) <= 4
 Constraint10_29:  5 x(4,1,0) - w(1) + w(4) <= 4
 Constraint10_30:  5 x(4,2,0) - w(2) + w(4) <= 4
 Constraint10_31:  5 x(4,3,0) - w(3) + w(4) <= 4
 Constraint10_32:  5 x(5,0,0) - w(0) + w(5) <= 4
 Constraint10_33:  5 x(5,1,0) - w(1) + w(5) <= 4
 Constraint10_34:  5 x(5,2,0) - w(2) + w(5) <= 4
 Constraint10_35:  5 x(5,3,0) - w(3) + w(5) <= 4
 Constraint10_36:  5 x(6,0,0) - w(0) + w(6) <= 6
 Constraint10_37:  5 x(6,1,0) - w(1) + w(6) <= 6
 Constraint10_38:  5 x(6,2,0) - w(2) + w(6) <= 6
 Constraint10_39:  5 x(6,3,0) - w(3) + w(6) <= 6
 Constraint10_40:  5 x(6,5,0) - w(5) + w(6) <= 6
 Constraint10_41:  5 x(7,0,0) - w(0) + w(7) <= 6
 Constraint10_42:  5 x(7,1,0) - w(1) + w(7) <= 6
 Constraint10_43:  5 x(7,2,0) - w(2) + w(7) <= 6
 Constraint10_44:  5 x(7,3,0) - w(3) + w(7) <= 6
 Constraint10_45:  5 x(7,4,0) - w(4) + w(7) <= 6
 Constraint10_46:  5 x(8,0,0) - w(0) + w(8) <= 5
 Constraint10_47:  5 x(8,1,0) - w(1) + w(8) <= 5
 Constraint10_48:  5 x(8,2,0) - w(2) + w(8) <= 5
 Constraint10_49:  5 x(8,3,0) - w(3) + w(8) <= 5
 Constraint10_50:  5 x(8,4,0) - w(4) + w(8) <= 5
 Constraint10_51:  5 x(8,5,0) - w(5) + w(8) <= 5
 Constraint11_0_0: b(0) <= 11.9
 Constraint12_0_0: b(0) >= 11.9
 Constraint11_1_0: b(1) <= 15.9833333333333
 Constraint12_1_0: b(1) >= 15.9833333333333
 Constraint11_2_0: b(2) <= 10.25
 Constraint12_2_0: b(2) >= 10.25
 Constraint11_3_0: b(3) <= 11.45
 Constraint12_3_0: b(3) >= 11.45
 Constraint13_0:   x(0,1,0) + 0.2 w(0) <= 1
 Constraint13_1:   x(0,2,0) + 0.2 w(0) <= 1
 Constraint13_2:   x(0,3,0) + 0.2 w(0) <= 1
 Constraint13_3:   x(1,0,0) + 0.2 w(1) <= 1
 Constraint13_4:   x(1,2,0) + 0.2 w(1) <= 1
 Constraint13_5:   x(1,3,0) + 0.2 w(1) <= 1
 Constraint13_6:   x(2,0,0) + 0.2 w(2) <= 1
 Constraint13_7:   x(2,1,0) + 0.2 w(2) <= 1
 Constraint13_8:   x(2,3,0) + 0.2 w(2) <= 1
 Constraint13_9:   x(3,0,0) + 0.2 w(3) <= 1
 Constraint13_10:  x(3,1,0) + 0.2 w(3) <= 1
 Constraint13_11:  x(3,2,0) + 0.2 w(3) <= 1
Bounds
 0 <= x(0,1,0) <= 1
 0 <= x(0,2,0) <= 1
 0 <= x(0,3,0) <= 1
 0 <= x(0,4,0) <= 1
 0 <= x(0,5,0) <= 1
 0 <= x(0,6,0) <= 1
 0 <= x(0,7,0) <= 1
 0 <= x(0,9,0) <= 1
 0 <= x(1,0,0) <= 1
 0 <= x(1,2,0) <= 1
 0 <= x(1,3,0) <= 1
 0 <= x(1,4,0) <= 1
 0 <= x(1,5,0) <= 1
 0 <= x(1,6,0) <= 1
 0 <= x(1,7,0) <= 1
 0 <= x(1,9,0) <= 1
 0 <= x(2,0,0) <= 1
 0 <= x(2,1,0) <= 1
 0 <= x(2,3,0) <= 1
 0 <= x(2,4,0) <= 1
 0 <= x(2,5,0) <= 1
 0 <= x(2,6,0) <= 1
 0 <= x(2,7,0) <= 1
 0 <= x(2,9,0) <= 1
 0 <= x(3,0,0) <= 1
 0 <= x(3,1,0) <= 1
 0 <= x(3,2,0) <= 1
 0 <= x(3,4,0) <= 1
 0 <= x(3,5,0) <= 1
 0 <= x(3,6,0) <= 1
 0 <= x(3,7,0) <= 1
 0 <= x(3,9,0) <= 1
 0 <= x(4,0,0) <= 1
 0 <= x(4,1,0) <= 1
 0 <= x(4,2,0) <= 1
 0 <= x(4,3,0) <= 1
 0 <= x(5,0,0) <= 1
 0 <= x(5,1,0) <= 1
 0 <= x(5,2,0) <= 1
 0 <= x(5,3,0) <= 1
 0 <= x(6,0,0) <= 1
 0 <= x(6,1,0) <= 1
 0 <= x(6,2,0) <= 1
 0 <= x(6,3,0) <= 1
 0 <= x(6,5,0) <= 1
 0 <= x(6,9,0) <= 1
 0 <= x(7,0,0) <= 1
 0 <= x(7,1,0) <= 1
 0 <= x(7,2,0) <= 1
 0 <= x(7,3,0) <= 1
 0 <= x(7,4,0) <= 1
 0 <= x(7,9,0) <= 1
 0 <= x(8,0,0) <= 1
 0 <= x(8,1,0) <= 1
 0 <= x(8,2,0) <= 1
 0 <= x(8,3,0) <= 1
 0 <= x(8,4,0) <= 1
 0 <= x(8,5,0) <= 1
 0 <= y(0,0) <= 1
 0 <= y(1,0) <= 1
 0 <= y(2,0) <= 1
 0 <= y(3,0) <= 1
 0 <= y(4,0) <= 1
 0 <= y(5,0) <= 1
 0 <= y(6,0) <= 1
 0 <= y(7,0) <= 1
 0 <= y(8,0) <= 1
 0 <= y(9,0) <= 1
 0 <= b(0) <= 24
 0 <= b(1) <= 24
 0 <= b(2) <= 24
 0 <= b(3) <= 24
 0 <= b(4) <= 24
 0 <= b(5) <= 24
 0 <= b(6) <= 24
 0 <= b(7) <= 24
 0 <= b(8) <= 24
 0 <= b(9) <= 24
 0 <= w(0) <= 1
 0 <= w(1) <= 1
 0 <= w(2) <= 1
 0 <= w(3) <= 1
 0 <= w(4) <= 1
 0 <= w(5) <= 1
 0 <= w(6) <= 1
 0 <= w(7) <= 1
 0 <= w(8) <= 1
 0 <= w(9) <= 1
      id914 = 0
Binaries
 x(0,1,0)  x(0,2,0)  x(0,3,0)  x(0,4,0)  x(0,5,0)  x(0,6,0)  x(0,7,0) 
 x(0,9,0)  x(1,0,0)  x(1,2,0)  x(1,3,0)  x(1,4,0)  x(1,5,0)  x(1,6,0) 
 x(1,7,0)  x(1,9,0)  x(2,0,0)  x(2,1,0)  x(2,3,0)  x(2,4,0)  x(2,5,0) 
 x(2,6,0)  x(2,7,0)  x(2,9,0)  x(3,0,0)  x(3,1,0)  x(3,2,0)  x(3,4,0) 
 x(3,5,0)  x(3,6,0)  x(3,7,0)  x(3,9,0)  x(4,0,0)  x(4,1,0)  x(4,2,0) 
 x(4,3,0)  x(5,0,0)  x(5,1,0)  x(5,2,0)  x(5,3,0)  x(6,0,0)  x(6,1,0) 
 x(6,2,0)  x(6,3,0)  x(6,5,0)  x(6,9,0)  x(7,0,0)  x(7,1,0)  x(7,2,0) 
 x(7,3,0)  x(7,4,0)  x(7,9,0)  x(8,0,0)  x(8,1,0)  x(8,2,0)  x(8,3,0) 
 x(8,4,0)  x(8,5,0)  y(0,0)  y(1,0)  y(2,0)  y(3,0)  y(4,0)  y(5,0)  y(6,0) 
 y(7,0)  y(8,0)  y(9,0) 
End
